Academic license - for non-commercial use only
Changed value of parameter TimeLimit to 600.0
   Prev: 1e+100  Min: 0.0  Max: 1e+100  Default: 1e+100
Optimize a model with 402 rows, 40602 columns and 81003 nonzeros
Variable types: 0 continuous, 40602 integer (40602 binary)
Coefficient statistics:
  Matrix range     [1e+00, 2e+03]
  Objective range  [1e+00, 1e+00]
  Bounds range     [1e+00, 1e+00]
  RHS range        [1e+00, 1e+00]
Found heuristic solution: objective 141.0000000
Presolve time: 0.07s
Presolved: 402 rows, 40602 columns, 81003 nonzeros
Variable types: 0 continuous, 40602 integer (40602 binary)

Root relaxation: objective 6.500000e+01, 1408 iterations, 0.10 seconds

    Nodes    |    Current Node    |     Objective Bounds      |     Work
 Expl Unexpl |  Obj  Depth IntInf | Incumbent    BestBd   Gap | It/Node Time

     0     0   65.00000    0   90  141.00000   65.00000  53.9%     -    0s
H    0     0                      76.0000000   65.00000  14.5%     -    0s
H    0     0                      73.0000000   65.00000  11.0%     -    0s
H    0     0                      69.0000000   65.00000  5.80%     -    1s
H    0     0                      68.0000000   65.00000  4.41%     -    1s
     0     0   65.00000    0  156   68.00000   65.00000  4.41%     -    1s
     0     0   65.00000    0  183   68.00000   65.00000  4.41%     -    2s
     0     0   65.00000    0  110   68.00000   65.00000  4.41%     -    3s
     0     0   65.00000    0  108   68.00000   65.00000  4.41%     -    3s
H    0     0                      67.0000000   65.00000  2.99%     -    3s
H    0     0                      66.0000000   65.00000  1.52%     -    4s
     0     2   65.00000    0   96   66.00000   65.00000  1.52%     -    5s
     5     5   65.00000    1  100   66.00000   65.00000  1.52%   763   11s
     6     6   65.00000    1  145   66.00000   65.00000  1.52%   636   25s
     9     8   65.00000    1   92   66.00000   65.00000  1.52%   424   30s
    14    12   65.00000    1   93   66.00000   65.00000  1.52%  1970   39s
    15    13   65.00000    1  144   66.00000   65.00000  1.52%  1839   41s
    19    15   65.00000    1  159   66.00000   65.00000  1.52%  1452   45s
    24    19   65.00000    1  100   66.00000   65.00000  1.52%  1149   50s
    27    24   65.00000   26  101   66.00000   65.00000  1.52%  2704   55s
    45    38   65.00000   29  100   66.00000   65.00000  1.52%  1656   60s
    57    42   65.00000   30  101   66.00000   65.00000  1.52%  1331   69s
    64    42   65.00000   31   99   66.00000   65.00000  1.52%  1206   73s
    70    43   65.00000   31   97   66.00000   65.00000  1.52%  1126   76s
    83    48   65.00000   33  114   66.00000   65.00000  1.52%   996   82s
    90    50   65.00000   33  105   66.00000   65.00000  1.52%   926   85s
   107    64   65.00000   35  104   66.00000   65.00000  1.52%   789   91s
   135    87   65.00000   36  103   66.00000   65.00000  1.52%   637  100s
   181   123   65.00000   37  105   66.00000   65.00000  1.52%   508  118s
   267   177 infeasible   42        66.00000   65.00000  1.52%   377  143s
   398   268   65.00000   51   93   66.00000   65.00000  1.52%   272  167s
   543   373 infeasible   61        66.00000   65.00000  1.52%   220  192s
   685   453   65.00000   72  101   66.00000   65.00000  1.52%   183  220s
   824   547   65.00000   83   88   66.00000   65.00000  1.52%   162  247s
   996   628   65.00000   96  101   66.00000   65.00000  1.52%   147  273s
  1166   708   65.00000  109   86   66.00000   65.00000  1.52%   137  301s
  1305   776   65.00000  112   94   66.00000   65.00000  1.52%   134  330s
  1472   865   65.00000   80   85   66.00000   65.00000  1.52%   133  360s
  1675  1001   65.00000   95   85   66.00000   65.00000  1.52%   122  388s
  1870  1118   65.00000  128   82   66.00000   65.00000  1.52%   115  418s
  2088  1200   65.00000  157   75   66.00000   65.00000  1.52%   110  447s
  2346  1307   65.00000  139   77   66.00000   65.00000  1.52%   105  479s
  2585  1411   65.00000  146   70   66.00000   65.00000  1.52%   102  509s
  2821  1503   65.00000  154   64   66.00000   65.00000  1.52%  98.5  544s
  3070  1602   65.00000  166   65   66.00000   65.00000  1.52%  96.4  577s
  3344  1663 infeasible  185        66.00000   65.00000  1.52%  93.8  600s

Cutting planes:
  Gomory: 15
  Cover: 61
  Clique: 35
  Flow cover: 1
  Inf proof: 4
  Zero half: 2

Explored 3610 nodes (347529 simplex iterations) in 600.01 seconds
Thread count was 12 (of 12 available processors)

Solution count 7: 66 67 68 ... 141

Time limit reached
Best objective 6.600000000000e+01, best bound 6.500000000000e+01, gap 1.5152%
y[0]
y[1]
y[2]
y[3]
y[5]
y[7]
y[10]
y[11]
y[17]
y[19]
y[20]
y[22]
y[24]
y[27]
y[42]
y[47]
y[53]
y[54]
y[59]
y[60]
y[63]
y[65]
y[66]
y[67]
y[68]
y[70]
y[73]
y[75]
y[76]
y[77]
y[87]
y[89]
y[91]
y[96]
y[99]
y[108]
y[109]
y[110]
y[112]
y[114]
y[118]
y[121]
y[122]
y[124]
y[125]
y[127]
y[131]
y[137]
y[139]
y[140]
y[145]
y[148]
y[150]
y[154]
y[162]
y[164]
y[174]
y[175]
y[179]
y[181]
y[185]
y[191]
y[195]
y[197]
y[199]
y[200]
x[0][58]
x[0][72]
x[0][162]
x[0][167]
x[1][38]
x[1][83]
x[2][84]
x[2][91]
x[2][112]
x[2][114]
x[2][118]
x[2][135]
x[3][27]
x[3][111]
x[3][178]
x[5][31]
x[5][92]
x[7][29]
x[7][123]
x[7][131]
x[10][67]
x[10][70]
x[10][116]
x[11][8]
x[11][136]
x[11][166]
x[17][18]
x[17][103]
x[19][15]
x[19][141]
x[19][145]
x[19][168]
x[20][47]
x[20][94]
x[20][121]
x[20][189]
x[22][55]
x[22][76]
x[22][139]
x[24][4]
x[24][146]
x[24][165]
x[24][192]
x[27][39]
x[27][95]
x[27][132]
x[42][60]
x[42][71]
x[42][130]
x[47][1]
x[47][143]
x[47][150]
x[53][6]
x[53][134]
x[53][174]
x[54][28]
x[54][96]
x[59][51]
x[59][75]
x[59][190]
x[60][42]
x[60][97]
x[60][151]
x[60][152]
x[63][36]
x[63][86]
x[65][17]
x[65][107]
x[66][16]
x[66][124]
x[66][148]
x[67][26]
x[67][106]
x[67][163]
x[68][3]
x[68][138]
x[68][184]
x[68][186]
x[70][21]
x[70][126]
x[70][159]
x[70][199]
x[70][200]
x[73][2]
x[73][173]
x[73][175]
x[73][188]
x[75][45]
x[75][80]
x[76][46]
x[76][78]
x[76][183]
x[77][44]
x[77][79]
x[77][197]
x[87][54]
x[87][68]
x[89][11]
x[89][125]
x[89][155]
x[91][14]
x[91][129]
x[91][177]
x[96][41]
x[96][85]
x[99][32]
x[99][102]
x[99][158]
x[108][12]
x[108][133]
x[108][170]
x[109][13]
x[109][119]
x[110][59]
x[110][65]
x[110][181]
x[110][194]
x[112][56]
x[112][73]
x[112][160]
x[114][34]
x[114][99]
x[114][153]
x[118][24]
x[118][105]
x[121][30]
x[121][108]
x[121][156]
x[122][33]
x[122][98]
x[122][161]
x[124][61]
x[124][66]
x[124][137]
x[125][35]
x[125][88]
x[127][10]
x[127][120]
x[127][187]
x[131][19]
x[131][109]
x[137][5]
x[137][128]
x[139][25]
x[139][101]
x[140][49]
x[140][82]
x[140][154]
x[140][196]
x[145][40]
x[145][87]
x[145][171]
x[145][193]
x[148][22]
x[148][100]
x[150][43]
x[150][93]
x[150][147]
x[150][172]
x[150][176]
x[154][37]
x[154][117]
x[154][127]
x[154][195]
x[162][9]
x[162][149]
x[162][164]
x[162][179]
x[164][53]
x[164][89]
x[164][110]
x[174][48]
x[174][81]
x[174][144]
x[175][7]
x[175][122]
x[175][198]
x[179][57]
x[179][69]
x[179][191]
x[181][50]
x[181][90]
x[181][142]
x[181][169]
x[181][180]
x[181][182]
x[185][62]
x[185][64]
x[185][157]
x[191][23]
x[191][104]
x[195][0]
x[195][140]
x[197][20]
x[197][113]
x[199][52]
x[199][74]
x[199][185]
x[200][63]
x[200][77]
x[200][115]
Obj: 66.0
